************************************************************************
file with basedata            : md344_.bas
initial value random generator: 1888920758
************************************************************************
projects                      :  1
jobs (incl. supersource/sink ):  22
horizon                       :  150
RESOURCES
  - renewable                 :  2   R
  - nonrenewable              :  2   N
  - doubly constrained        :  0   D
************************************************************************
PROJECT INFORMATION:
pronr.  #jobs rel.date duedate tardcost  MPM-Time
    1     20      0       19       18       19
************************************************************************
PRECEDENCE RELATIONS:
jobnr.    #modes  #successors   successors
   1        1          3           2   3   4
   2        3          1          15
   3        3          3           5   6  16
   4        3          3           7   8   9
   5        3          3          10  11  13
   6        3          1          15
   7        3          2          10  13
   8        3          2          10  16
   9        3          3          11  12  18
  10        3          2          15  19
  11        3          2          19  20
  12        3          2          13  16
  13        3          2          14  21
  14        3          2          17  20
  15        3          2          18  21
  16        3          2          17  21
  17        3          1          19
  18        3          1          20
  19        3          1          22
  20        3          1          22
  21        3          1          22
  22        1          0        
************************************************************************
REQUESTS/DURATIONS:
jobnr. mode duration  R 1  R 2  N 1  N 2
------------------------------------------------------------------------
  1      1     0       0    0    0    0
  2      1     5       8    5    6    0
         2     6       7    3    0    4
         3     9       3    2    0    3
  3      1     3       6    8    9    0
         2     3       5    8    0    9
         3     5       4    8    0    5
  4      1     4       8    1    0    5
         2     8       7    1    0    4
         3     8       5    1    3    0
  5      1     4       9    6   10    0
         2     5       8    4    7    0
         3    10       7    2    7    0
  6      1     3       7    4    0    7
         2     9       7    4    7    0
         3    10       6    4    0    6
  7      1     2       7    8    9    0
         2     5       4    7    9    0
         3    10       4    5    9    0
  8      1     3       9    8    0    7
         2     8       6    4    8    0
         3     9       6    4    5    0
  9      1     2      10    7    0    6
         2     3       8    7    8    0
         3     5       7    7    0    2
 10      1     1      10    5    6    0
         2     5       9    4    0    2
         3     9       9    4    4    0
 11      1     1       2    8    9    0
         2     2       2    7    0   10
         3     9       2    7    0    9
 12      1     2       9    8    0    9
         2     2       9    6    7    0
         3    10       9    4    0    6
 13      1     2       3    7    6    0
         2     5       2    5    5    0
         3     7       1    2    4    0
 14      1     3       5    4    0    7
         2     3       6    4    8    0
         3     9       3    3    6    0
 15      1     5       5    7    5    0
         2     8       5    6    3    0
         3    10       4    5    0    3
 16      1     1       7    8    0    7
         2     2       7    4    6    0
         3     3       2    4    0    7
 17      1     1       5    8    4    0
         2     5       4    5    3    0
         3     6       3    5    1    0
 18      1     2       8    3    0    7
         2     3       7    3    0    6
         3     5       7    3    1    0
 19      1     5       9    8    0    6
         2     7       8    5    6    0
         3     8       8    5    0    3
 20      1     3       7   10    0    6
         2     3       6    6    2    0
         3     4       6    3    0    6
 21      1     2      10    4    7    0
         2     3       7    3    7    0
         3     4       5    2    6    0
 22      1     0       0    0    0    0
************************************************************************
RESOURCEAVAILABILITIES:
  R 1  R 2  N 1  N 2
   50   38  102   71
************************************************************************
MAXIMAL LAGS:
from  to  type  delay
    1   12   ES      0
    1    2   ES      0
    2   12   ES      0
    1    3   ES      0
    3   12   ES      0
    1    4   ES      0
    4   12   ES      0
    1    5   ES      0
    5   12   ES      0
    1    6   ES      0
    6   12   ES      0
    1    7   ES      0
    7   12   ES      0
    1    8   ES      0
    8   12   ES      0
    1    9   ES      0
    9   12   ES      0
    1   10   ES      0
   10   12   ES      0
    1   11   ES      0
   11   12   ES      0
    1   12   ES      0
    2   15   SS     -6
    2   15   SE     -4
    2   15   ES    -12
    2   15   EE      9
    3    5   SS     -4
    3    5   SE     -6
    3    5   ES     -5
    3    5   EE     10
    3    6   SS      2
    3    6   SE    -12
    3    6   ES      8
    3    6   EE    -11
    3   16   SS      6
    3   16   SE      1
    3   16   ES      5
    3   16   EE     10
    4    7   SS      3
    4    7   SE     -5
    4    7   ES     10
    4    7   EE     11
    4    8   SS    -11
    4    8   SE     -3
    4    8   ES     -1
    4    8   EE    -10
    4    9   SS      7
    4    9   SE     -1
    4    9   ES      2
    4    9   EE      3
    5   10   SS      5
    5   10   SE     -7
    5   10   ES     -1
    5   10   EE      9
    5   11   SS     -1
    5   11   SE     11
    5   11   ES      5
    5   11   EE      5
    5   13   SS     -8
    5   13   SE     -2
    5   13   ES     11
    5   13   EE      8
    6   15   SS     -1
    6   15   SE      1
    6   15   ES     -7
    6   15   EE      6
    7   10   SS      0
    7   10   SE     -1
    7   10   ES      2
    7   10   EE     -1
    7   13   SS     12
    7   13   SE     -3
    7   13   ES     -8
    7   13   EE      9
    8   10   SS     12
    8   10   SE      3
    8   10   ES      9
    8   10   EE      5
    8   16   SS      1
    8   16   SE     -1
    8   16   ES      1
    8   16   EE    -10
    9   11   SS      7
    9   11   SE     -4
    9   11   ES     -8
    9   11   EE     -2
    9   18   SS     -1
    9   18   SE      8
    9   18   ES      2
    9   18   EE      2
   10   15   SS     12
   10   15   SE      5
   10   15   ES      9
   10   15   EE     -7
   10   19   SS    -11
   10   19   SE     -2
   10   19   ES      4
   10   19   EE      8
   11   19   SS     -8
   11   19   SE      7
   11   19   ES     -2
   11   19   EE      5
   11   20   SS      8
   11   20   SE     11
   11   20   ES     -7
   11   20   EE      6
   12   13   SS     -8
   12   13   SE     -6
   12   13   ES     10
   12   13   EE      0
   12   16   SS    -10
   12   16   SE      1
   12   16   ES     -9
   12   16   EE      4
   13   14   SS      5
   13   14   SE    -11
   13   14   ES      4
   13   14   EE     -9
   13   21   SS      6
   13   21   SE    -12
   13   21   ES     -4
   13   21   EE      5
   14   17   SS      9
   14   17   SE     -7
   14   17   ES     11
   14   17   EE     -5
   14   20   SS      9
   14   20   SE     10
   14   20   ES     -2
   14   20   EE      3
   15   18   SS     -9
   15   18   SE     -2
   15   18   ES     11
   15   18   EE     -1
   15   21   SS      5
   15   21   SE      0
   15   21   ES      4
   15   21   EE      9
   16   17   SS      0
   16   17   SE     -5
   16   17   ES      6
   16   17   EE     -1
   16   21   SS     11
   16   21   SE      1
   16   21   ES     10
   16   21   EE     12
   17   19   SS     -9
   17   19   SE     -5
   17   19   ES      8
   17   19   EE      8
   18   20   SS      2
   18   20   SE     -8
   18   20   ES     10
   18   20   EE     12
   19   22   SS     -6
   19   22   SE     10
   19   22   ES    -12
   19   22   EE      4
   20   22   SS     -9
   20   22   SE      3
   20   22   ES     -8
   20   22   EE    -10
   21   22   SS     10
   21   22   SE     -3
   21   22   ES     -5
   21   22   EE     12
************************************************************************
